(set-logic ALL)
;(set-option :smt.string_solver z3str3)
(set-option :produce-models true)
(define-fun-rec str.toLower ((x String)) String
  (ite (= x "")
      ""
      (let ((Head (str.at x 0)))
        (str.++ 
          (ite (and (<= 65 (str.to_code Head)) 
                     (<= (str.to_code Head) 90))
               (str.from_code (+ (str.to_code Head) 32))
               Head)
          (str.toLower (str.substr x 1 (- (str.len x) 1)))))))
(declare-fun sym209 () String)
(assert (<= (str.len sym209) 1))
(declare-fun sym1703 () String)
(assert (<= (str.len sym1703) 1))
(declare-fun sym817 () String)
(assert (<= (str.len sym817) 1))
(declare-fun sym1921 () String)
(assert (<= (str.len sym1921) 1))
(declare-fun sym3217 () String)
(assert (<= (str.len sym3217) 1))
(declare-fun sym1039 () String)
(assert (<= (str.len sym1039) 1))
(declare-fun sym551 () String)
(assert (<= (str.len sym551) 1))
(declare-fun sym2139 () String)
(assert (<= (str.len sym2139) 1))
(declare-fun sym2357 () String)
(assert (<= (str.len sym2357) 1))
(declare-fun sym2575 () String)
(assert (<= (str.len sym2575) 1))
(declare-fun sym3433 () String)
(assert (<= (str.len sym3433) 1))
(declare-fun sym2793 () String)
(assert (<= (str.len sym2793) 1))
(declare-fun sym1264 () String)
(assert (<= (str.len sym1264) 1))
(declare-fun sym3530 () String)
(assert (<= (str.len sym3530) 1))
(declare-fun sym1485 () String)
(assert (<= (str.len sym1485) 1))
(declare-fun sym3011 () String)
(assert (<= (str.len sym3011) 1))
(declare-fun sym161 () String)
(assert (<= (str.len sym161) 1))
(define-fun Alphabet () RegLan 
	(re.* (re.union (str.to_re "A") (str.to_re "B") (str.to_re "C") (str.to_re "D") (str.to_re "E") (str.to_re "F") (str.to_re "G") (str.to_re "H") (str.to_re "I") (str.to_re "J") (str.to_re "K") (str.to_re "L") (str.to_re "M") (str.to_re "N") (str.to_re "O") (str.to_re "P") (str.to_re "Q") (str.to_re "R") (str.to_re "S") (str.to_re "T") (str.to_re "U") (str.to_re "V") (str.to_re "W") (str.to_re "X") (str.to_re "Y") (str.to_re "Z") (str.to_re "a") (str.to_re "b") (str.to_re "c") (str.to_re "d") (str.to_re "e") (str.to_re "f") (str.to_re "g") (str.to_re "h") (str.to_re "i") (str.to_re "j") (str.to_re "k") (str.to_re "l") (str.to_re "m") (str.to_re "n") (str.to_re "o") (str.to_re "p") (str.to_re "q") (str.to_re "r") (str.to_re "s") (str.to_re "t") (str.to_re "u") (str.to_re "v") (str.to_re "w") (str.to_re "x") (str.to_re "y") (str.to_re "z") ))
)

(assert (str.in_re sym161 Alphabet))
(assert (str.in_re sym3011 Alphabet))
(assert (str.in_re sym1485 Alphabet))
(assert (str.in_re sym3530 Alphabet))
(assert (str.in_re sym1264 Alphabet))
(assert (str.in_re sym2793 Alphabet))
(assert (str.in_re sym3433 Alphabet))
(assert (str.in_re sym2575 Alphabet))
(assert (str.in_re sym2357 Alphabet))
(assert (str.in_re sym2139 Alphabet))
(assert (str.in_re sym551 Alphabet))
(assert (str.in_re sym1039 Alphabet))
(assert (str.in_re sym3217 Alphabet))
(assert (str.in_re sym1921 Alphabet))
(assert (str.in_re sym817 Alphabet))
(assert (str.in_re sym1703 Alphabet))
(assert (str.in_re sym209 Alphabet))(assert (<= 1 (str.len sym1485 )))
(assert (<= 1 (str.len sym3530 )))
(assert (<= 1 (str.len sym1264 )))
(assert (<= 1 (str.len sym3433 )))
(assert (<= 1 (str.len sym1039 )))
(assert (<= 1 (str.len sym1703 )))
(assert (<= 1 (str.len sym1921 )))
(assert (<= 1 (str.len sym209 )))
(assert (<= 1 (str.len sym3217 )))
(assert (<= 1 (str.len sym2575 )))
(assert (<= 1 (str.len sym551 )))
(assert (<= 1 (str.len sym2793 )))
(assert (<= 1 (str.len sym817 )))
(assert (<= 1 (str.len sym2357 )))
(assert (<= 1 (str.len sym2139 )))
(assert (<= 1 (str.len sym3011 )))

(assert (not (= "y" "n" )))
(assert (not (= (str.toLower (str.substr sym3011  0 1))"p" )))
(assert (not (= (str.toLower (str.substr sym2793  0 1))"q" )))
(assert (= "" sym161 ))
(assert (not (= (str.toLower (str.substr sym3217  0 1))"p" )))
(assert (not (= (str.toLower (str.substr sym2575  0 1))"q" )))
(assert (not (= "" "q" )))
(assert (not (= (str.toLower (str.substr sym1485  0 1))"q" )))
(assert (not (= (str.toLower (str.substr sym1264  0 1))"g" )))
(assert (not (= (str.toLower (str.substr sym1039  0 1))"k" )))
(assert (not (= (str.toLower (str.substr sym1264  0 1))"k" )))
(assert (= (str.toLower (str.substr sym2575  0 1))"p" ))
(assert (not (= "" sym1485 )))
(assert (not (= (str.toLower (str.substr sym3433  0 1))"p" )))
(assert (not (= (str.toLower (str.substr sym3217  0 1))"q" )))
(assert (not (= "" sym817 )))
(assert (not (= (str.toLower (str.substr sym1264  0 1))"q" )))
(assert (not (= "" sym209 )))
(assert (not (= "" sym3011 )))
(assert (not (= (str.toLower (str.substr sym3433  0 1))"k" )))
(assert (= (str.toLower (str.substr sym551  0 1))"p" ))
(assert (not (= "" sym551 )))
(assert (not (= "" sym3433 )))
(assert (not (= "" "n" )))
(assert (not (= (str.toLower (str.substr sym3530  0 1))"y" )))
(assert (not (= (str.toLower (str.substr sym1039  0 1))"q" )))
(assert (not (= (str.toLower (str.substr sym817  0 1))"p" )))
(assert (not (= (str.toLower (str.substr sym1264  0 1))"l" )))
(assert (not (= (str.toLower (str.substr sym3217  0 1))"k" )))
(assert (not (= (str.toLower (str.substr sym1921  0 1))"q" )))
(assert (not (= "" sym1921 )))
(assert (not (= (str.toLower (str.substr sym551  0 1))"q" )))
(assert (= (str.toLower (str.substr sym2793  0 1))"p" ))
(assert (not (= "n" "y" )))
(assert (not (= "" sym2793 )))
(assert (= (str.toLower (str.substr sym2357  0 1))"p" ))
(assert (not (= "" sym2357 )))
(assert (= "y" "y" ))
(assert (= (str.toLower (str.substr sym1485  0 1))"p" ))
(assert (not (= "" sym2575 )))
(assert (= (str.toLower (str.substr sym2139  0 1))"p" ))
(assert (= (str.toLower (str.substr sym1921  0 1))"p" ))
(assert (not (= "" sym2139 )))
(assert (not (= "" (str.toLower (str.substr sym3530  0 1)))))
(assert (= (str.toLower (str.substr sym209  0 1))"y" ))
(assert (not (= (str.toLower (str.substr sym2357  0 1))"q" )))
(assert (not (= (str.toLower (str.substr sym2139  0 1))"q" )))
(assert (not (= (str.toLower (str.substr sym3433  0 1))"q" )))
(assert (= (str.toLower (str.substr sym817  0 1))"k" ))
(assert (= (str.toLower (str.substr sym1703  0 1))"p" ))
(assert (not (= (str.toLower (str.substr sym817  0 1))"q" )))
(assert (= (str.toLower (str.substr sym3433  0 1))"g" ))
(assert (not (= (str.toLower (str.substr sym1264  0 1))"r" )))
(assert (= (str.toLower (str.substr sym1039  0 1))"g" ))
(assert (not (= (str.toLower (str.substr sym1703  0 1))"q" )))
(assert (not (= "" "y" )))
(assert (not (= (str.toLower (str.substr sym3011  0 1))"q" )))
(assert (not (= "" (str.toLower (str.substr sym209  0 1)))))
(assert (= "" "" ))
(assert (not (= (str.toLower (str.substr sym1039  0 1))"p" )))
(assert (not (= "" sym1703 )))
(assert (not (= (str.toLower (str.substr sym1264  0 1))"p" )))
(assert (not (= "" sym3530 )))
(assert (= (str.toLower (str.substr sym3011  0 1))"k" ))
(assert (= (str.toLower (str.substr sym3217  0 1))"g" ))
(assert (not (= "" sym1039 )))
(assert (not (= "" sym3217 )))
(assert (not (= "" "y" )))
(assert (not (= "" sym1264 )))
(assert (= (str.toLower (str.substr sym1264  0 1))"h" ))
(check-sat)
(get-model)
(exit)
